Gurobi 12.0.3:   lim:time = 14400

  mip:bestbound = 1

Set parameter LogToConsole to value 1

  tech:outlev = 1

Set parameter Cuts to value 3

  cut:cuts = 3

Set parameter Presolve to value 2

  pre:solve = 2

Set parameter MIPFocus to value 2

  mip:focus = 2

Set parameter Symmetry to value 2

  mip:symmetry = 2

Set parameter InfUnbdInfo to value 1

Gurobi Optimizer version 12.0.3 build v12.0.3rc0 (win64 - Windows 11+.0 (26200.2))



CPU model: 13th Gen Intel(R) Core(TM) i7-13700K, instruction set [SSE2|AVX|AVX2]

Thread count: 16 physical cores, 24 logical processors, using up to 24 threads



Non-default parameters:

TimeLimit  14400

MIPFocus  2

Symmetry  2

Cuts  3

InfUnbdInfo  1

Presolve  2



Optimize a model with 466 rows, 970 columns and 5584 nonzeros

Model fingerprint: 0x6bb64d10

Model has 4 quadratic constraints

Variable types: 38 continuous, 932 integer (0 binary)

Coefficient statistics:

  Matrix range     [1e+00, 1e+05]

  QMatrix range    [1e+00, 1e+00]

  QLMatrix range   [1e+01, 1e+01]

  Objective range  [4e+00, 1e+02]

  Bounds range     [1e+00, 1e+02]

  RHS range        [1e+00, 1e+05]

  QRHS range       [1e+02, 1e+02]

Presolve removed 53 rows and 94 columns

Presolve time: 0.16s

Presolved: 1053 rows, 1462 columns, 8709 nonzeros

Variable types: 15 continuous, 1447 integer (1225 binary)

Found heuristic solution: objective 602.8500000

Root relaxation presolve removed 19 rows and 0 columns

Root relaxation presolved: 611 rows, 1090 columns, 10406 nonzeros





Root relaxation: objective 9.250704e+01, 158 iterations, 0.01 seconds (0.01 work units)



    Nodes    |    Current Node    |     Objective Bounds      |     Work

 Expl Unexpl |  Obj  Depth IntInf | Incumbent    BestBd   Gap | It/Node Time



     0     0   92.50704    0   49  602.85000   92.50704  84.7%     -    0s

H    0     0                     398.7100000  113.63853  71.5%     -    0s

     0     0  129.50881    0   46  398.71000  129.50881  67.5%     -    0s

     0     0  129.60440    0   67  398.71000  129.60440  67.5%     -    0s

     0     0  142.62992    0   80  398.71000  142.62992  64.2%     -    0s

H    0     0                     378.5500000  142.62992  62.3%     -    0s

     0     0  142.85000    0   44  378.55000  142.85000  62.3%     -    0s

H    0     0                     378.0600000  142.85000  62.2%     -    0s

     0     0  142.85000    0   44  378.06000  142.85000  62.2%     -    0s

H    0     0                     370.0400000  142.85371  61.4%     -    0s

H    0     0                     365.1600000  142.85371  60.9%     -    0s

H    0     0                     344.5300000  142.85371  58.5%     -    0s

H    0     0                     341.0900000  142.85371  58.1%     -    0s

H    0     0                     340.0600000  142.85371  58.0%     -    0s

H    0     0                     330.7300000  142.85371  56.8%     -    0s

     0     0  142.87252    0   60  330.73000  142.87252  56.8%     -    0s

     0     0  142.87252    0   51  330.73000  142.87252  56.8%     -    0s

H    0     0                     327.2900000  155.25197  52.6%     -    1s

     0     0  155.25197    0   82  327.29000  155.25197  52.6%     -    1s

     0     0  155.25197    0   82  327.29000  155.25197  52.6%     -    1s

H    0     2                     326.1500000  155.51514  52.3%     -    1s

     0     2  155.51514    0   82  326.15000  155.51514  52.3%     -    1s

H   31    48                     320.4500000  172.71796  46.1%  65.2    1s

  8230  1690  287.03000   35   53  320.45000  272.34000  15.0%  21.3    5s



Cutting planes:

  Learned: 17

  Gomory: 12

  Lift-and-project: 6

  Cover: 24

  Implied bound: 68

  Projected implied bound: 11

  Clique: 50

  MIR: 20

  Mixing: 14

  Flow cover: 181

  Inf proof: 23

  Zero half: 184

  RLT: 40

  Relax-and-lift: 38



Explored 37953 nodes (750024 simplex iterations) in 9.47 seconds (9.61 work units)

Thread count was 24 (of 24 available processors)



Solution count 10: 320.45 320.45 326.15 ... 370.04



Optimal solution found (tolerance 1.00e-04)

Best objective 3.204500000000e+02, best bound 3.204500000000e+02, gap 0.0000%



AMPL MP initial flat model has 970 variables (0 integer, 932 binary);

Objectives: 1 linear; 

Constraints:  466 linear; 4 quadratic;



AMPL MP final model has 970 variables (0 integer, 932 binary);

Objectives: 1 linear; 

Constraints:  466 linear; 4 quadratic;





-----RESULTS INFO-----
running_time:  9.562
TC.best_bound:  320.45
TC:  320.45
MIP Gap (%):  0
=== Vehicle Routes ===
Vehicle 1: 0 → 4
Vehicle 1: 1 → 20
Vehicle 1: 2 → 1
Vehicle 1: 4 → 16
Vehicle 1: 13 → 2
Vehicle 1: 16 → 13
Vehicle 2: 0 → 3
Vehicle 2: 3 → 18
Vehicle 2: 18 → 20
Vehicle 3: 0 → 20
Vehicle 4: 0 → 20

=== Full Vehicle Routes ===
Vehicle 1: 0 → 4 → 16 → 13 → 2 → 1 → 0 (91<100)
Vehicle 2: 0 → 3 → 18 → 0 (93<100)
Vehicle 3: 0 → 0 (0<100)
Vehicle 4: 0 → 0 (0<100)
Arc used by MRT line: y variables:
Customer assigment to PL: u variables:
5 13
6 16
7 16
8 18
9 18
10 18
11 16
12 18
Node is served by regular vehicle: g variables:
1
2
3
4
13
16
18
Customer assigment to Home delivery: gm variables:
1
2
3
4
Node total demands: ntd variables:
1 13 1
2 12 1
3 13 1
4 12 1
9 0 0
10 0 0
11 0 0
12 0 0
19 0 0
13 12 1
14 0 0
15 0 0
16 42 1
17 0 0
18 80 1
Customer's demand delivered to PL: l variables:
5
6
7
8
9
10
11
12
Lockers load <= capacity:
0 <= 73
12 <= 85
0 <= 81
0 <= 96
42 <= 74
0 <= 82
80 <= 96
